2411067210160989857506,14,1,2,012,7,1,2,012,3,1,2,013,1,1,2,06,7,1,2,012,13,1,2,011,6,1,2,014,11,1,2,01,13,1,2,06,1,1,2,01,15,1,2,03,10,1,2,014,3,1,2,07,7,1,2,011,8,1,2,013,15,1,2,014,6,1,2,03,1,1,2,02,2,1,2,08,14,1,2,07,12,1,2,01,10,1,2,09,6,1,2,012,6,1,2,01,9,1,2,013,6,1,2,012,2,1,2,013,12,1,2,015,8,1,2,015,10,1,2,07,1,1,2,011,4,1,2,07,11,1,2,02,5,1,2,01,3,1,2,013,13,1,2,015,5,1,2,08,2,1,2,015,2,1,2,013,15,1,2,07,4,1,2,015,4,1,2,08,12,1,2,03,13,1,2,012,15,1,2,015,14,1,2,05,9,1,2,02,8,1,2,08,2,1,2,010,15,1,2,0